9 196
39 143
20 111
50 46
52 37
5 3
14 141
17 12
92 8
71 8
2 66
26 98
71 43
71 43
54 49
84 44
27 146
87 31
15 92
48 46
25 63
85 2
40 25
29 185
9 36
12 70
36 70
20 33
39 20
6 44
56 35
9 126
48 113
66 4
6 25
50 97
17 118
49 112
12 12
1 75
8 139
36 1
70 41
7 28
3 137
4 100
18 182
66 48
7 24
41 1
